s td 63 14 77
b 1 12 40 60
b 2 5 47 66
b 3 51 63 77
b 4 1 10 11 54
b 5 12 23 60
b 6 26 42 58 62
b 7 9 44 48 49
b 8 1 10 28 35 48 61 65 77
b 9 8 10 17 27 28 35 36 41 48 61 62 65 67 75
b 10 8 10 17 27 28 35 36 41 45 48 62 65 67 75
b 11 3 10 17 27 28 35 45 48 62 65 67 75
b 12 3 10 14 17 27 35 45 48 62 65 75
b 13 3 10 14 21 35 45 62 65
b 14 3 10 14 21 32 62 65
b 15 2 3 10 21 32 62
b 16 3 14 17 27 45 48 56 75
b 17 14 39 45 56 75
b 18 39 45 56 71 75
b 19 6 39 56 71 75
b 20 3 16 17 27 48 56 75
b 21 15 16 17 48 75
b 22 3 22 27 28 67
b 23 8 10 17 24 35 36 41 45 65 75
b 24 4 10 24 41 65 75
b 25 4 7 10 24 41 65
b 26 4 7 24 33 41
b 27 4 7 10 46 65
b 28 8 17 18 24 35 36 41 45
b 29 8 18 24 31 35 36 41 45
b 30 8 18 20 31 36
b 31 18 24 31 35 41 45 73
b 32 18 24 41 45 57 73
b 33 24 41 52 57 73
b 34 8 10 12 17 27 28 35 36 41 48 61 62 67 75
b 35 8 10 12 17 27 28 34 35 36 41 48 61 62 67
b 36 8 10 12 17 27 28 34 36 41 48 49 62 67
b 37 8 12 17 27 28 34 36 41 48 49 55 62 67
b 38 17 36 41 48 49 55 62 64
b 39 17 41 48 55 62 64 72
b 40 41 55 64 66 72
b 41 5 41 64 66 72
b 42 36 44 48 49 64
b 43 8 12 17 23 27 28 34 36 41 49 55 67
b 44 8 17 23 28 34 36 37 49 55 67
b 45 8 23 34 36 37 43 55 67
b 46 34 37 43 55 67 70
b 47 37 43 55 67 68 70
b 48 38 43 55 68 70
b 49 19 38 43 55 68
b 50 37 67 68 69 70
b 51 8 36 43 53 55
b 52 10 12 30 34 35 36 61 62
b 53 10 12 30 34 36 58 62
b 54 12 26 30 34 58 62
b 55 13 26 30 34 58
b 56 1 10 28 48 65 74 77
b 57 1 10 11 65 74 77
b 58 1 11 63 74 77
b 59 1 10 29 35 61 77
b 60 5 25 64 66 72
b 61 2 3 50 62
b 62 28 59 74 77
b 63 23 27 55 76
1 5
2 41
3 58
4 57
5 43
6 54
7 42
8 9
8 56
8 59
9 10
9 34
10 11
10 23
11 12
11 22
12 13
12 16
13 14
14 15
15 61
16 17
16 20
17 18
18 19
20 21
23 24
23 28
24 25
25 26
25 27
28 29
29 30
29 31
31 32
32 33
34 35
35 36
35 52
36 37
37 38
37 43
38 39
38 42
39 40
40 41
41 60
43 63
43 44
44 45
45 46
45 51
46 47
47 48
47 50
48 49
52 53
53 54
54 55
56 62
56 57
57 58
